n= 4
m= 30
1000
1500
2000
3000
1031	4	2
1673	10	5
2151	4	4
1739	12	3
373	21	7
460	8	2
2307	9	3
2263	1	1
1753	18	6
1273	7	7
2290	15	5
289	12	6
1782	12	3
2262	24	6
787	16	4
1475	18	6
2335	3	3
1207	12	3
2056	6	3
511	28	7
1684	24	6
706	7	7
1369	16	4
479	16	4
1638	12	4
273	6	6
681	9	3
1570	9	3
418	8	4
1476	4	4
